
 102   30
  10   10   10   10   10   10   10   10   10   10   10   10   10   10   10   10   10   10   10   10   10   10   10   10   10   10   10   10   10   10

   0   0   0   0   0   0   0   0   0   0   0   0   0   0   0   0   0   0   0   0   0   0   0   0   0   0   0   0   0   0   0  27 2 3 4 5 6 7 8 9 10 11 12 13 14 16 17 18 19 20 21 22 23 25 26 33 34 36 50 
   2   0   0   0   0   0   0   0   0   0   0   0   0   4   3   1   0   0   0   0   0   0   0   0   0   0   0   0   2   0   3  15 73 59 57 56 54 53 47 44 38 37 32 31 30 29 24 
   8   0   0   0   0   0   0   0   0   0   1   0   1   0   0   0   0   0   0   0   1   0   0   2   0   0   0   0   0   0   9  12 100 99 75 73 70 65 64 59 58 52 37 15 
   1   2   0   0   0   0   0   0   0   0   9   0   0   0   0   0   0   0   0   0   0   0   0   0   0   0   0   0   0   0   0  19 101 99 98 75 74 73 71 68 66 62 61 55 52 51 49 46 41 39 35 
   2   0   6   0   1   0   0   0   0   1   0   0   0   7   0   0   0   0   0   1   0   0   0   0   0   0   0   1   5   0   0  15 100 97 73 67 65 62 61 59 58 57 55 42 40 39 29 
   8   0   0   1   0   0   3   0   0   0   5   0   0   0   0   0   0   0   0   0   0   0   2   0   0   0   0   0   0   1   0  10 72 70 58 55 49 46 44 42 31 28 
   3   0   0   0   0   0   0   0   0   0   9   0   0   0   3   0   0   0   0   0   6   0   0   3   0   0   0   0   0   0   0  18 99 75 73 72 71 69 67 65 64 61 58 56 53 52 48 46 40 32 
   9  10   0   0   0   3   0   0   0   3   0   0   0   0   0   0   0   3   0   0   0   0   0   0   0   0   1   0   0   0   0   9 101 75 60 59 55 48 37 27 24 
   8   0   0   0   0   0   0   0   0   5   0   0   0   0   0   0   0   0   0   0   0   0   0   0   0   1   6   0   0   0   5  14 101 100 94 75 71 69 66 65 64 54 49 48 37 29 
   5   0   0   0   4   0   7   0   0   0   0   0   0   0   0   0   1   0   0   0   0   0   0   0   0   0   0   0   0   0   0  17 101 100 97 94 92 75 72 71 69 67 66 65 63 62 61 47 29 
   4   7   6   0   0   0   0   0   0   0   0   0   0   0   0   0   0   0   0   0   0   0   0   0   0   0   7   6   0   0   0  16 100 99 98 97 73 71 70 68 62 61 57 53 52 48 44 40 
   8   0   3   0   0   0   0   0   1   0   0   0   0   0   5   0   0   0   0   0   0   0   0   7   0   0   0   0   7   0   0  19 100 99 98 96 95 91 75 73 71 69 66 65 60 59 54 52 51 49 39 
   7   0   0   0   0   0   0   0   0   0   0   0   0   0   0   0   6   0   0   0   0   0   0   0   1   0   0   0   0   0   0  18 100 98 97 96 95 75 74 73 69 66 65 62 61 54 53 52 40 39 
   8   0   6   0   6   0   0   0   0   0   4   0   0   0   0   0   0   0   0   0   0   0   0   0   0   7   0   0   0   0   0  15 99 98 96 95 70 68 65 60 55 54 53 51 43 42 40 
   4   0   0   0   0   0   0   0   0   0   0   0   0   0   5   0   0   8   0   0   0   0   0   0   0   0   0   0   6   0   0  11 98 86 72 57 55 53 51 47 46 45 40 
   7   0   0   4   0   0   0   0   0   0   0   0   0   0   0   0   0   0   0   6   0   0   0   0   7   0   0   0   0   0   0  20 100 99 98 97 95 93 92 91 89 86 75 74 70 65 60 57 55 54 51 49 
  10   0   8   0   0   0   0   0  10   0   0   0   0   0   3   0   8   0   0   0   0   0   0   0   7   0   0   0   0   0   0  14 100 99 98 97 91 73 70 69 67 66 61 52 49 39 
   4   0   0   0   0   0   0   0   0   0   0   0   0   0   0  10   0   0   0   0   0   1   5   0   0   0   0   0   0   0   0  10 96 92 73 70 67 66 65 55 40 39 
   3   0   0   0   0   0   7   2   0   0   0   0   0   0   0   0   0   0   0   0   5   0   0   0   0   0   0   0   0   0   0  13 100 99 97 96 86 70 66 64 61 59 53 51 40 
   9   0   0   0   0   0   0   0   0   0   0   0   0   0   0   0   0   9   0   6   0   0   0   0   0   0   0   0   0   0   0  11 99 96 95 86 74 68 66 64 55 51 40 
   6   3   0   0   0   0   0   0   0   0   0   0   0   0   0   0   8   0   0   0   0   0   0   0   0   0   0   0   0   0   0  11 101 99 97 95 86 82 73 59 56 52 40 
   1   0   0   0   0   0   0   5   0   0   0   0   5   0   0   5   0   0   1   0   0   0   0   0   0   0   0   0   0   0   0   6 97 94 87 72 68 29 
   3   0   0   8   0   0   0   0   0   0   0   0   0   0   0   0   0   0   0   0   0   0   0   0   0   0   0   0  10   0   0  16 98 93 92 90 87 86 85 70 67 66 61 60 58 57 56 55 
   7   0   0   0   0   5   0   5   0   0   0   0   0   0   0   0   0   0   0   0   0   0   0   0   7   5   0   0   0   0   0  10 100 99 97 96 88 86 69 68 65 40 
   4   0   0   0   0   0  10   0   7   0   0   0   0   8   0   0   0   0   0   0   0   7   8   7   0   0   0   0   0   0   0  16 100 95 91 90 88 85 83 82 80 74 70 69 63 60 59 53 
   8   0   0   6   0   0   0   0   0   0   8   0   0   0   0   9   0   0   0   0   0   9   0   0   0   9   4   0   0   0   0  14 92 91 89 88 86 82 73 71 69 67 64 60 57 49 
   2   0  10   0   7   0   0   0   0   0   0   0   0   0   0   0   0   0   0   0   0   0   0   0   0   9   0   0   0   0   0   9 96 88 86 82 73 71 64 56 40 
   6   0   0   0   0   0   0   0   0   0   0   0   3   0   0   0   0   0   0   0   0   0   0   0   6   0   8   0   0   0   0  15 98 96 94 93 92 90 89 81 79 71 68 62 61 52 51 
   2   0   0   0   0   0   0   0   0   6   0   2   5   3   0   0   0   0   0   0   0   0   0   0   0   0   8   0   0   0   0  15 99 98 96 95 93 91 90 89 86 85 81 70 60 52 51 
   2   0   0   0   0   0   0   0   0   0   0   0   0   0   0   0   0   0   5   0   0   0   8   5   0   0   0   5   0   0   0  11 101 93 87 86 84 79 68 66 61 51 46 
   4   0   0   5   0   0   0   0   0   0   0   0   0   0   0   0   0   9   0   0   5   0   0   0   0   0   0   0   0   0   0  17 101 100 99 97 95 93 91 90 88 87 86 83 80 71 67 63 60 
   7   4   0   0   0   0   0   0   5   0   9   0   8   0   0   0   0   0   0   0   0   0   0   0   0   0   0   0   0   0   0  14 98 96 94 93 89 87 86 85 77 74 70 66 63 51 
   2   8   0   0   0   0   0   0   0   0   0   0   0   0   0   0   0   0   0   0  10   0   2   0   0   0   0   0   0   0   6  14 100 98 95 94 92 90 89 87 86 84 80 68 65 55 
   5   0   4   0   0   9   0   0   0   0   0   0   0   0   0   0   6   0   0   0   0   5   0   0   0   0   0   0   5   0  10  13 96 92 91 90 89 87 82 74 73 70 68 62 52 
   6  10   0   0   0   0   6   0   0   0   0   0   8   0   0   0   0   0   0   0   0   8   0   0  10   0   0   0   0   9   0  11 100 97 96 94 92 91 88 86 83 69 47 
   2   0   0   0   0   0   0   3   0   0   0   0   0   0   0   0   0   0   0   0   0   0   0   0   3   0   8   0   0   0   0  11 101 100 99 94 91 89 88 85 69 57 49 
   9   0   0   0   0   0   0   0   0   0   0   5   1   0   0   0   0   0   0   0   0   0   0   0   0   0   0   0   0   0   0   9 98 96 90 89 84 72 68 61 46 
   3   0   0   0   0   0   7   4   0   5   0   0   0   0   0   0   0   0   5   0   6   0   0   0   0   0   0   0   9   0   0  10 93 92 89 82 79 70 68 66 63 62 
   5   0   0   0   0   0   0   0   0   8   0   7   0   0   0   0   0   0   0  10   0   0   0   0   8   0   0   0   0   0   0  11 93 90 89 87 86 85 82 76 72 64 56 
   5   0   0   0   0   0   0   0   5   0   0   0   0   0   8   6   0   0   0   0   0   0  10   0   0   0   0   0   0   0   0   7 94 93 91 89 85 78 49 
   6   0   0   0   0   0   0   0   0   0   0   0   0   0   0   0   0   0   8   0   0   0   0   0   0   6   0   0   0   0   0  12 91 90 89 86 85 84 83 79 76 70 65 64 
   5   0   0   0   8   0   0   0   0   0   0   0   0   0   5   3   0   0   6   7  10   0   0   0   0   0   0   0   0   0   0  12 89 88 86 85 84 83 82 81 80 78 71 69 
   7   0   0   0   0   0   0   0   0   0   0   0   6   0   0   0   0   0   0   0   0   0   0   5   0   0   0   0   0   0   0  11 101 97 89 86 84 83 82 81 76 69 64 
   4   0   0   0   0   0   0   0   0   0   0   0   8   0   0   4   9   0   0   0   0   0   0   0   0   0   0   0   5   0   0   9 96 92 86 85 76 75 74 69 64 
   9   0   0   0   0   0   0   0   0   0   0   0   0   0   0   0   0   0   0   0   0   6   0   0   5   0   0   0   0   0   7   8 88 87 85 83 77 74 71 63 
   4   0   0   0   0   0   0   8   0   0   0   5   0   0   0   0   0   0   0   0   0   0   0   0   0   0   0   0   0   0   0  11 97 95 92 91 85 83 82 81 80 78 76 
  10   5   0   0   0   0   0   0   6   0   4   0   0   5   0   0   0   0   0   0   0   0   0  10   0   0   0   0   0   0   0   8 95 89 87 82 81 80 78 60 
   6   0  10   0   0   0   6   0   0  10   5   0   0   0   0   0   8   0   7   0   0   0   0   0   0   0   0   0   0   0   0  10 95 90 88 87 85 81 80 78 77 76 
   3   0   0   0   0   0   0   0   0   0   0   0   0   0   0   0   0   0   0   0   0   0   0   0   0   0   0   0   0   0   0   8 90 87 83 80 79 77 76 63 
   7   0   0   5   0   0   0   8   0   0   0   0   0   0   0   0   0   0   0   0   0   0   0   0   0   0   0   0   0   0   0   8 94 91 87 86 85 84 80 78 
   4   6   0   0   0   0   0   0   0   0   0   0   0   0   0   0   0   0   0   4   0   0   0   0   0   0   0   4   0   9   5   5 88 83 82 78 76 
   2   0   0   9   0   0   0   0   0   0   0  10   0   0   0   0   0   2   0   0   0   0   0   0   0   6   0   0   0   0   0   5 88 84 80 78 76 
   2   0   0   0   0   0   5   0   0   0   0   5   0   0   7   0   0   0   0   0   0   0   0   0   0   0   8   0   0   0   0   5 94 92 87 79 78 
   4   5   0   0   0   0   0   0   0   0   4   0   0   0   0   0   4   0   0   0   9   0   0   0   0   0   0   0   0   0   0   5 90 85 82 80 76 
  10   0   0   0   0   0   0   0   0   0   0   0   0   0   0   0   0   0   0   0   5   0   0   0   0   0   0   0   6   0   0   4 88 83 76 69 
   2   0   0   0   0   3   0   0   0   0   0   9   0   6   0   7   0   0   9   0   0   0   0   0   0   7   0   0   0   0   0   4 83 81 80 77 
   5   0   0   0   0   0   0   0   0   0   0   0   0   0   0   0   0   0   0   0   0   6   0   0   0   0   0   0   0   0   0   4 83 78 77 76 
   8   0   0   0   7   0   0   0   0   0   0   0   0   0   0   0   0   0   0   0   0   0   0   0   0   0   0   0   0   7   0   4 91 84 80 78 
   3   0   0   0   0   0   0   0   0   0   0   0   0   5   0   0   0   0   4   4   0   6   0   0  10   0   6   0   0   0   0   3 94 92 68 
   6   0   0   0   0   0   0   8   0   0   0   0   0   0   0   0   0   0   0   0   0   0   0   0   7   0   0   0   0   0   0   3 79 77 76 
   6   0   0   0   0   0   0   0   0   0   0   0   0   0   0   0   0   0   0   0   0   0   0   0   0   0   0   0   0   0   0   3 82 80 76 
   7   0   0   0   0  10   0   0   0   0   0   0   3   0   0   0   0   0   0   6   0   0   0   0   0   0   0   0   0   0   0   3 86 85 80 
   1   0   0   0   0   0   6   0   0   0   0   3   0   0   0   0   0   0   0   5   0   0   0   0   5   0   8   0   0   0   0   2 84 81 
   9   0   0   0   0   0   0   0   4   7   0   0   0   0   0   0   4   0   0   0   0   0   0   0   0   0   0   0   0   3   2   2 78 77 
   6   0   0   0   0   0   0   0   0   0   0   0   0   0   0   0   0   0   6   0   0   0   0   0   0   0   0   0   0   0   0   2 82 81 
   2   8   0   0   0   0   0   0   0   0   7   0   0   6   0   0   0   0   0   0   0   0   0   0   0   0   5   4   0   0   0   2 78 76 
   2   0   5  10   0   0   0   0   0   0   0   0   0   0   0   0   0   2   0   0   0   0   7   0   0   0   0   0   0   0   0   1 68 
   4   0   0   7   0   0   4   0   0   0   0   0   0   8   0   0   0   5   5   0   0   0   0   0   0   0   0   0   0   0   0   1 77 
   5   0   0   0   0   6   0   0   0   0   4   0   0   0   0   8   0   0   0   0   0   0   0   0   0   0   0   0   0   0   0   1 79 
   9   7   0   2   0   0   0   0   0   0   6   0   0   0   0   0   0   0   0   0   0   0   0   0   0   0   0   0   0   0   0   1 78 
   5   0   0   0   6   0   0   0   0   0   0   6   8   0   0   0   4   4   0   0   8   0   0   0   0   0   0   0   0   0   0   1 76 
   7   0   0   0   0   0   0   0   0   0   0   0   0   0   7   0   0  10   0   0   0   0   0   0   0   0   0   0   0   0   6   1 79 
   4   0   0   0   0   0   0   0   0   0   0   0   0   0   0   0   0   0   0   0   0   0   0   0   0   0   0   0   0   0   0   1 77 
   8   0   0   0   0   0   0   0   0   0   0   0   0   0   0   0   0   0   0   0   0   6   0   0   0   0   0   0   0   0   0   1 79 
   2   0   0   0   7   0   0   7   0   0   0   0   8   0   0   0   0   0   0   0   0   0   0   0   0   0   0   0   0   0   0   1 82 
   3   0   0   0   7   6   0   0   0   0   0   0   8   0   0   0   0   0   0   5  10   0   0   0   0   0   0   9   0   0   0   1 102
   9   0   3   0   0   7   0   0   0   0   0   0   0   0  10   5   0   6   0   0   5   0   0   0   0   0   0   0   0   0   0   1 102
   7   0   0   0   0   0   0   0   8   0   7   0  10   0   0   0   0   0   0   0   5   5   0   0   0   0   0   6   0   0   0   1 102
   9   0   4   0   0   5   0   0   0   0   0   0   0   0   0   0   5   0   0   0   0   0   0   0   4   0   0   0   0   0   0   1 102
   1   0   0   0   8   0   0   0   0   0   0   0   0   0   0   0   0   0   0   6   0   0   0   6   0   6   0   6   0   7   0   1 102
   1   5   0   0   0   0   0   8   0   4   0   0   0   0   0   8   0   0   0   0   0   0   0   0   0   0   0   0   0   0   0   1 102
   7   0   0   0   0   0   0   0   0   0   0   0   8   0   0   0   0   0   0   0   0   0   0   0   0   5   5   8   0   0   0   1 102
   4   0   0   0   5   0   0   0   2   0   0   0   0   0   0   0   0   0   0   0   6   0   0   0   5   0   0   8   0   0   0   1 102
   1   0   0   0   0   0   8   0   7   0   0   0   6   0   0   0   0   0   6   0   0   0   5   8   0   0   0   0   0   0   0   1 102
   9   0   0   0   0   0   4   0  10   0   0   0   0   0   0   0   0   0   0   0   0   0   0   0   0   0   8   7   0   0   0   1 102
   6   6   0   0   0   0   0   0   0  10   0   0   8   0   0   0   0   0   0   0   0   0   4   0   0   0   0   0   0   0   0   1 102
  10   0   0   0   0   0   6   4   0   0   0   0   0   0   0   0   0   0   0   0   0   0   0   0   0   0   0   0   0   0   0   1 102
   5   5   7   0   6   0   0   0   0   6   0   0   0   0   0   0   0   0   0   0   3   0   0   0   5   0   0   0   0   0   0   1 102
   8   0   0   0   0   0   0   0   0   0   0   0   0   0   9   8   0   7   0   0   9   0   0   0   0   0   0   0   0   0   0   1 102
   5   0   0   0   0   0   0   0   0   0   0   0   0   0   0   0   0   0   0   0   0   0   0   0   0   0   0   0   0   0   0   1 102
   2   5   0   0   0   0   0   0   0   0   0   0   0   0   0   0   0   0   0   0   0   6   0   0   0   6   0   0   0   0   0   1 102
   3   0   0   0   0   0   0   0   0   0   0   3   0   0   0   0   0   0   0   0   0   6   0   0   0   0   0   7   0   0   0   1 102
   5   0   0   0   0   0   0   0   0   5   0   0   0   6   0   0   0   0   0   0   0   0   0   0   0   0   0   0   0   0   0   1 102
   9   0   0   0   0   0   0   0   7   8   0   0   0   0   0   5   0   0   0   0   0   0   0   0   0   6   0   0   0   0   0   1 102
  10   0   5   7   0   0   0   0   0   0   0   0   0   0   0   0   9   0   0   9   0   0   0   0   0   0   0   5   5   0   0   1 102
   6   0   0   0   0   0   0   0   0   0   0   8   0   0   0   0   0   0   0   0   0   0   0   7   0   0   0   6   0   0   7   1 102
   3   0   0   0   0   0   0   0   0   0   0   9   0   0   6   0   0   7   9   0   0   0   0   0   4   0   0   0   0   0   0   1 102
   9   0   7   0   0   0   5  10   0   0   8   0   4   4   0   0   0   0   7   9   0   6   0   0   5   0   0   0   0   0   0   1 102
   9   7   0   0   0   0   0   0   0   0   0   0   0   0   0   0   0   0   0   0   0   7   0   0   9   5   0   0   0   0   0   1 102
   1   5   0   8   0   0   0   0   0   0   0   0   0   0   0   0   0   0   0   0   4   0   0   0   0   0   2   0   0   0   0   1 102
   4   0   0   0   0   0   0   0   0   6   0   0   0  10   7   5   0   0   0   0   1   0   9   0   0   0   6   8   0   0   0   1 102
   0   0   0   0   0   0   0   0   0   0   0   0   0   0   0   0   0   0   0   0   0   0   0   0   0   0   0   0   0   0   0   0 
